\ LP format - for model browsing. Use MPS format to capture full model detail.
Minimize
  v_0 + v_1 + v_2 + v_3 + v_4 + v_5 + v_6 + v_7 + v_8 + v_9 + v_10 + v_11
   + v_12 + v_13 + v_14 + v_15 + v_16 + v_17 + v_18 + v_19 + v_20 + v_21
   + v_22 + v_23 + v_24 + v_25 + v_26 + v_27 + v_28 + v_29 + v_30 + v_31
   + v_32 + v_33 + v_34 + v_35 + v_36 + v_37 + v_38 + v_39 + v_40 + v_41
   + v_42 + v_43 + v_44 + v_45 + v_46 + v_47
Subject To
 R0: >= -1
 R1: v_0 - v_1 >= -1
 R2: v_0 - v_12 >= -1
 R3: >= -1
 R4: >= -1
 R5: v_1 - v_2 >= -1
 R6: v_1 - v_13 >= -1
 R7: - v_0 + v_1 >= -1
 R8: >= -1
 R9: v_2 - v_3 >= -1
 R10: v_2 - v_14 >= -1
 R11: - v_1 + v_2 >= -1
 R12: >= -1
 R13: v_3 - v_4 >= -1
 R14: v_3 - v_15 >= -1
 R15: - v_2 + v_3 >= -1
 R16: >= -1
 R17: v_4 - v_5 >= -1
 R18: v_4 - v_16 >= -1
 R19: - v_3 + v_4 >= -1
 R20: >= -1
 R21: v_5 - v_6 >= -1
 R22: v_5 - v_17 >= -1
 R23: - v_4 + v_5 >= -1
 R24: >= -1
 R25: v_6 - v_7 >= -1
 R26: v_6 - v_18 >= -1
 R27: - v_5 + v_6 >= -1
 R28: >= -1
 R29: v_7 - v_8 >= -1
 R30: v_7 - v_19 >= -1
 R31: - v_6 + v_7 >= -1
 R32: >= -1
 R33: v_8 - v_9 >= -1
 R34: v_8 - v_20 >= -1
 R35: - v_7 + v_8 >= -1
 R36: >= -1
 R37: v_9 - v_10 >= -1
 R38: v_9 - v_21 >= -1
 R39: - v_8 + v_9 >= -1
 R40: >= -1
 R41: v_10 - v_11 >= -1
 R42: v_10 - v_22 >= -1
 R43: - v_9 + v_10 >= -1
 R44: >= -1
 R45: >= -1
 R46: v_11 - v_23 >= -1
 R47: - v_10 + v_11 >= -1
 R48: - v_0 + v_12 >= -1
 R49: v_12 - v_13 >= -1
 R50: v_12 - v_24 >= -1
 R51: >= -1
 R52: - v_1 + v_13 >= -1
 R53: v_13 - v_14 >= -1
 R54: v_13 - v_25 >= -1
 R55: - v_12 + v_13 >= -1
 R56: - v_2 + v_14 >= -1
 R57: v_14 - v_15 >= -1
 R58: v_14 - v_26 >= -1
 R59: - v_13 + v_14 >= -1
 R60: - v_3 + v_15 >= -1
 R61: v_15 - v_16 >= -1
 R62: v_15 - v_27 >= -1
 R63: - v_14 + v_15 >= -1
 R64: - v_4 + v_16 >= -1
 R65: v_16 - v_17 >= -1
 R66: v_16 - v_28 >= -1
 R67: - v_15 + v_16 >= -1
 R68: - v_5 + v_17 >= -1
 R69: v_17 - v_18 >= -1
 R70: v_17 - v_29 >= -1
 R71: - v_16 + v_17 >= -1
 R72: - v_6 + v_18 >= -1
 R73: v_18 - v_19 >= -1
 R74: v_18 - v_30 >= -1
 R75: - v_17 + v_18 >= -1
 R76: - v_7 + v_19 >= -1
 R77: v_19 - v_20 >= -1
 R78: v_19 - v_31 >= -1
 R79: - v_18 + v_19 >= -1
 R80: - v_8 + v_20 >= -1
 R81: v_20 - v_21 >= -1
 R82: v_20 - v_32 >= -1
 R83: - v_19 + v_20 >= -1
 R84: - v_9 + v_21 >= -1
 R85: v_21 - v_22 >= -1
 R86: v_21 - v_33 >= -1
 R87: - v_20 + v_21 >= -1
 R88: - v_10 + v_22 >= -1
 R89: v_22 - v_23 >= -1
 R90: v_22 - v_34 >= -1
 R91: - v_21 + v_22 >= -1
 R92: - v_11 + v_23 >= -1
 R93: >= -1
 R94: v_23 - v_35 >= -1
 R95: - v_22 + v_23 >= -1
 R96: - v_12 + v_24 >= -1
 R97: v_24 - v_25 >= -1
 R98: v_24 - v_36 >= -1
 R99: >= -1
 R100: - v_13 + v_25 >= -1
 R101: v_25 - v_26 >= -1
 R102: v_25 - v_36 >= -100
 R103: - v_24 + v_25 >= -1
 R104: - v_14 + v_26 >= -1
 R105: v_26 - v_27 >= -1
 R106: v_26 - v_36 >= -100
 R107: - v_25 + v_26 >= -1
 R108: - v_15 + v_27 >= -1
 R109: v_27 - v_28 >= -1
 R110: v_27 - v_36 >= -100
 R111: - v_26 + v_27 >= -1
 R112: - v_16 + v_28 >= -1
 R113: v_28 - v_29 >= -1
 R114: v_28 - v_36 >= -100
 R115: - v_27 + v_28 >= -1
 R116: - v_17 + v_29 >= -1
 R117: v_29 - v_30 >= -1
 R118: v_29 - v_36 >= -100
 R119: - v_28 + v_29 >= -1
 R120: - v_18 + v_30 >= -1
 R121: v_30 - v_31 >= -1
 R122: v_30 - v_36 >= -100
 R123: - v_29 + v_30 >= -1
 R124: - v_19 + v_31 >= -1
 R125: v_31 - v_32 >= -1
 R126: v_31 - v_36 >= -100
 R127: - v_30 + v_31 >= -1
 R128: - v_20 + v_32 >= -1
 R129: v_32 - v_33 >= -1
 R130: v_32 - v_36 >= -100
 R131: - v_31 + v_32 >= -1
 R132: - v_21 + v_33 >= -1
 R133: v_33 - v_34 >= -1
 R134: v_33 - v_36 >= -100
 R135: - v_32 + v_33 >= -1
 R136: - v_22 + v_34 >= -1
 R137: v_34 - v_35 >= -1
 R138: v_34 - v_36 >= -100
 R139: - v_33 + v_34 >= -1
 R140: - v_23 + v_35 >= -1
 R141: >= -1
 R142: v_35 - v_47 >= -1
 R143: - v_34 + v_35 >= -1
 R144: - v_24 + v_36 >= -1
 R145: >= -100
 R146: >= -1
 R147: >= -1
 R148: v_37 >= 0
 R149: v_37 >= 0
 R150: v_37 >= 0
 R151: v_37 >= 0
 R152: v_38 >= 0
 R153: v_38 >= 0
 R154: v_38 >= 0
 R155: v_38 >= 0
 R156: v_39 >= 0
 R157: v_39 >= 0
 R158: v_39 >= 0
 R159: v_39 >= 0
 R160: v_40 >= 0
 R161: v_40 >= 0
 R162: v_40 >= 0
 R163: v_40 >= 0
 R164: v_41 >= 0
 R165: v_41 >= 0
 R166: v_41 >= 0
 R167: v_41 >= 0
 R168: v_42 >= 0
 R169: v_42 >= 0
 R170: v_42 >= 0
 R171: v_42 >= 0
 R172: v_43 >= 0
 R173: v_43 >= 0
 R174: v_43 >= 0
 R175: v_43 >= 0
 R176: v_44 >= 0
 R177: v_44 >= 0
 R178: v_44 >= 0
 R179: v_44 >= 0
 R180: v_45 >= 0
 R181: v_45 >= 0
 R182: v_45 >= 0
 R183: v_45 >= 0
 R184: v_46 >= 0
 R185: v_46 >= 0
 R186: v_46 >= 0
 R187: v_46 >= 0
 R188: v_47 >= 0
 R189: v_47 >= 0
 R190: v_47 >= 0
 R191: v_47 >= 0
Bounds
 v_0 free
 v_1 free
 v_2 free
 v_3 free
 v_4 free
 v_5 free
 v_6 free
 v_7 free
 v_8 free
 v_9 free
 v_10 free
 v_11 free
 v_12 free
 v_13 free
 v_14 free
 v_15 free
 v_16 free
 v_17 free
 v_18 free
 v_19 free
 v_20 free
 v_21 free
 v_22 free
 v_23 free
 v_24 free
 v_25 free
 v_26 free
 v_27 free
 v_28 free
 v_29 free
 v_30 free
 v_31 free
 v_32 free
 v_33 free
 v_34 free
 v_35 free
 v_36 free
 v_37 free
 v_38 free
 v_39 free
 v_40 free
 v_41 free
 v_42 free
 v_43 free
 v_44 free
 v_45 free
 v_46 free
 v_47 free
End
